
List of user-set options:

                                    Name   Value                used
                           compl_inf_tol = 1                     yes
                         constr_viol_tol = 1                     yes
                            dual_inf_tol = 1000                  yes
                           linear_solver = ma97                  yes
                              ma86_small = 1e-30                  no
                                  ma86_u = 0.0001                 no
                              ma97_order = best                  yes
                              ma97_small = 1e-30                 yes
                            ma97_switch1 = at_start              yes
                            ma97_switch2 = od_hd_reuse           yes
                                  ma97_u = 1e-06                 yes
                               ma97_umax = 0.5                   yes
                                max_iter = 1000                  yes
                    max_refinement_steps = 20                    yes
                    min_refinement_steps = 5                     yes
                                 mu_init = 1e-06                 yes
           mu_superlinear_decrease_power = 1.25                  yes
                   nlp_scaling_min_value = 1e-08                 yes
                        option_file_name = Preset_Case_915_pf.opt  yes
                             output_file = ./tmp/Preset_Case_915_pf.output  yes
                      print_user_options = yes                   yes
        required_infeasibility_reduction = 1                      no
                                     tol = 1e-08                 yes
                   warm_start_bound_frac = 1e-20                 yes
                   warm_start_bound_push = 1e-20                 yes
                   warm_start_init_point = yes                   yes
              warm_start_mult_bound_push = 1e-20                 yes
                warm_start_mult_init_max = 1e+40                 yes
             warm_start_slack_bound_frac = 1e-20                 yes
             warm_start_slack_bound_push = 1e-20                 yes

******************************************************************************
This program contains Ipopt, a library for large-scale nonlinear optimization.
 Ipopt is released as open source code under the Eclipse Public License (EPL).
         For more information visit http://projects.coin-or.org/Ipopt
******************************************************************************

This is Ipopt version 3.12.10, running with linear solver ma97.

Number of nonzeros in equality constraint Jacobian...:   123443
Number of nonzeros in inequality constraint Jacobian.:      213
Number of nonzeros in Lagrangian Hessian.............:    49069

Total number of variables............................:    31591
                     variables with only lower bounds:    12912
                variables with lower and upper bounds:    15130
                     variables with only upper bounds:        0
Total number of equality constraints.................:    31483
Total number of inequality constraints...............:       25
        inequality constraints with only lower bounds:        4
   inequality constraints with lower and upper bounds:        0
        inequality constraints with only upper bounds:       21

iter    objective    inf_pr   inf_du lg(mu)  ||d||  lg(rg) alpha_du alpha_pr  ls
   0 -5.2724320e+00 4.06e-03 1.02e+00  -6.0 0.00e+00    -  0.00e+00 0.00e+00   0
   1 -5.2746722e+00 9.00e+00 3.35e+01  -6.0 2.77e+05    -  1.22e-04 1.67e-03h  1
   2 -5.2746338e+00 9.00e+00 3.35e+01  -6.0 2.41e+03    -  1.09e-04 3.28e-05h  1
   3 -5.2731670e+00 9.00e+00 3.36e+01  -6.0 1.13e+04    -  8.14e-05 5.28e-04h  3
   4 -5.2722245e+00 8.99e+00 3.64e+01  -6.0 3.30e+03    -  3.84e-02 8.33e-04h  3
   5 -5.2718854e+00 8.99e+00 3.78e+01  -6.0 5.17e+04    -  8.65e-04 3.15e-04h  5
   6 -5.2717570e+00 8.99e+00 3.88e+01  -6.0 3.21e+03    -  2.09e-03 1.14e-04h 11
   7 -5.2717232e+00 8.99e+00 4.03e+01  -6.0 3.20e+03    -  2.98e-03 3.00e-05h 13
   8r-5.2717232e+00 8.99e+00 9.99e+02   1.0 0.00e+00    -  0.00e+00 2.51e-07R 20
   9r-5.2741206e+00 8.99e+00 2.35e+03   1.0 6.66e+05    -  3.06e-08 6.90e-09f  1
iter    objective    inf_pr   inf_du lg(mu)  ||d||  lg(rg) alpha_du alpha_pr  ls
  10 -5.2740991e+00 8.99e+00 1.24e+03  -6.0 5.43e+02    -  7.85e-04 1.71e-05h  1
  11 -5.2739916e+00 8.99e+00 4.50e+03  -6.0 3.55e+02    -  1.81e-05 6.48e-05h  1
  12 -5.2717356e+00 8.97e+00 4.46e+03  -6.0 3.56e+02    -  6.78e-05 1.36e-03h  1
  13 -5.2714448e+00 8.97e+00 4.46e+03  -6.0 3.48e+02    -  1.42e-03 1.74e-04h  1
  14 -5.2677345e+00 8.96e+00 4.45e+03  -6.0 3.26e+02    -  6.78e-04 1.59e-03h  3
  15 -5.2653164e+00 8.95e+00 4.44e+03  -6.0 3.23e+02    -  3.34e-04 1.06e-03h  4
  16 -5.2649474e+00 8.95e+00 4.44e+03  -6.0 3.20e+02    -  6.56e-04 1.60e-04h  7
  17 -5.2647375e+00 8.95e+00 4.44e+03  -6.0 3.19e+02    -  3.92e-04 9.12e-05h  8
  18 -5.2646247e+00 8.95e+00 4.44e+03  -6.0 3.19e+02    -  2.43e-03 4.91e-05h  9
  19 -5.2515964e+00 8.89e+00 4.42e+03  -6.0 3.38e+02    -  5.49e-04 5.90e-03h  1
iter    objective    inf_pr   inf_du lg(mu)  ||d||  lg(rg) alpha_du alpha_pr  ls
  20 -5.2399691e+00 8.85e+00 4.39e+03  -6.0 3.37e+02    -  9.22e-03 5.31e-03h  1
  21 -5.2289319e+00 8.80e+00 4.37e+03  -6.0 3.35e+02    -  1.79e-02 5.07e-03h  1
  22 -5.0734117e+00 8.18e+00 6.29e+03  -6.0 3.33e+02    -  3.09e-03 7.14e-02h  1
  23 -5.0731578e+00 8.18e+00 1.49e+05  -6.0 3.21e+02    -  9.59e-02 1.27e-04h  1
  24 -4.9425121e+00 7.68e+00 3.85e+05  -6.0 3.10e+02    -  2.28e-02 6.11e-02h  1
  25 -4.9347144e+00 7.65e+00 3.84e+05  -6.0 2.96e+02    -  4.07e-02 3.86e-03h  1
  26r-4.9347144e+00 7.65e+00 1.00e+03   0.9 0.00e+00   0.0 0.00e+00 3.37e-07R  4
  27r-4.9317095e+00 7.65e+00 6.96e+03   0.9 2.30e+05    -  6.19e-07 2.18e-07f  1
  28 -4.9316668e+00 7.65e+00 1.33e+02  -6.0 3.01e+02    -  4.06e-05 2.36e-05h  1
  29 -4.9295088e+00 7.64e+00 1.44e+04  -6.0 2.89e+02    -  2.50e-05 1.14e-03h  1
iter    objective    inf_pr   inf_du lg(mu)  ||d||  lg(rg) alpha_du alpha_pr  ls
  30 -4.9293346e+00 7.64e+00 1.45e+04  -6.0 2.89e+02    -  6.45e-03 9.24e-05h  1
  31 -4.8847119e+00 7.46e+00 1.47e+04  -6.0 2.89e+02    -  1.53e-03 2.36e-02h  1
  32 -4.8664144e+00 7.39e+00 1.46e+04  -6.0 2.89e+02    -  1.57e-01 1.00e-02h  1
  33 -4.6659839e+00 6.67e+00 1.31e+04  -6.0 2.82e+02    -  4.12e-02 1.06e-01h  1
  34 -4.2118729e+00 5.05e+00 1.23e+04  -6.0 2.71e+02    -  5.29e-02 2.76e-01h  1
  35 -4.0281017e+00 4.00e+00 9.49e+03  -6.0 2.49e+02    -  1.35e-01 2.03e-01h  1
  36 -3.8878082e+00 2.70e+00 6.33e+03  -6.0 2.24e+02    -  4.85e-01 3.12e-01h  1
  37 -4.0800094e+00 1.17e+00 2.87e+04  -6.0 1.74e+02    -  4.93e-02 7.28e-01h  1
  38 -4.2470017e+00 7.26e-01 2.32e+04  -6.0 1.68e+01    -  2.29e-01 3.77e-01h  1
  39 -4.2497907e+00 7.21e-01 1.83e+04  -6.0 2.59e+01    -  3.63e-01 5.89e-03h  1
iter    objective    inf_pr   inf_du lg(mu)  ||d||  lg(rg) alpha_du alpha_pr  ls
  40 -4.4317499e+00 5.07e-01 1.11e+04  -6.0 2.82e+01    -  4.21e-01 3.11e-01h  1
  41 -4.6850791e+00 4.90e-01 7.57e+03  -6.0 3.88e+01    -  4.53e-01 3.26e-01h  1
  42 -5.2509427e+00 1.23e+00 4.08e+03  -6.0 5.62e+01    -  1.31e-01 5.22e-01h  1
  43 -5.4225666e+00 1.05e+00 6.14e+03  -6.0 6.66e+01    -  4.71e-01 2.23e-01h  1
  44 -5.4558546e+00 9.05e-01 6.88e+03  -6.0 8.48e+01    -  2.71e-01 1.64e-01h  1
  45 -5.4595621e+00 8.25e-01 7.22e+03  -6.0 6.71e+01    -  1.96e-01 8.92e-02h  1
  46 -5.4749222e+00 6.53e-01 7.30e+03  -6.0 8.96e+01    -  4.21e-01 2.08e-01h  1
  47 -5.4900232e+00 5.09e-01 6.12e+03  -6.0 1.36e+02    -  3.05e-01 2.21e-01h  1
  48 -5.5151762e+00 5.99e-01 4.71e+03  -6.0 8.44e+01    -  2.79e-01 1.68e-01h  1
  49 -5.5486914e+00 5.08e-01 3.46e+03  -6.0 1.78e+02    -  4.06e-01 3.30e-01h  1
iter    objective    inf_pr   inf_du lg(mu)  ||d||  lg(rg) alpha_du alpha_pr  ls
  50 -5.6178705e+00 1.02e+00 1.99e+03  -6.0 1.96e+02    -  4.07e-01 5.49e-01h  1
  51 -5.6178671e+00 1.02e+00 2.18e+05  -6.0 4.28e+01  -0.5 5.81e-05 2.73e-04h  1
  52 -5.6177351e+00 1.01e+00 2.16e+05  -6.0 9.09e-01  -1.0 7.91e-04 7.51e-03h  1
  53 -5.6019204e+00 7.60e-02 1.65e+04  -6.0 8.85e-01  -1.4 8.44e-03 9.28e-01h  1
  54 -5.6026716e+00 1.85e-02 3.99e+03  -6.0 1.56e-01  -1.9 3.75e-01 7.58e-01f  1
  55 -5.6027188e+00 1.85e-02 3.99e+03  -6.0 2.42e+03    -  2.35e-02 1.10e-04h  1
  56 -5.6174039e+00 3.81e-02 3.47e+03  -6.0 3.34e+02    -  2.48e-01 1.31e-01f  1
  57 -5.6311489e+00 2.64e-01 3.11e+03  -6.0 3.98e+02    -  2.84e-01 1.04e-01f  1
  58 -5.6422374e+00 2.42e-01 2.90e+03  -6.0 5.61e+02    -  3.99e-01 6.56e-02h  1
  59 -5.6456663e+00 2.38e-01 2.87e+03  -6.0 1.01e+03    -  5.08e-02 1.34e-02h  1
iter    objective    inf_pr   inf_du lg(mu)  ||d||  lg(rg) alpha_du alpha_pr  ls
  60 -5.6761246e+00 2.04e-01 2.11e+03  -6.0 3.51e+02    -  3.44e-01 2.63e-01h  1
  61 -5.7003975e+00 2.52e-01 1.36e+04  -6.0 3.43e+02    -  7.44e-01 2.40e-01h  1
  62 -5.7280011e+00 6.65e+00 8.30e+03  -6.0 7.66e+02    -  1.74e-01 2.93e-01h  1
  63 -5.7541959e+00 1.38e+01 2.47e+03  -6.0 9.22e+02    -  4.63e-01 5.14e-01h  1
  64 -5.7779512e+00 8.72e+00 6.66e+03  -6.0 1.02e+03    -  4.58e-01 6.11e-01h  1
  65 -5.7998381e+00 2.34e+01 2.01e+03  -6.0 1.53e+03    -  6.69e-01 6.19e-01h  1
  66 -5.8034069e+00 2.73e+01 2.62e+04  -6.0 2.49e+03    -  4.16e-01 2.85e-01h  1
  67 -5.8140665e+00 1.60e+01 2.16e+04  -6.0 1.20e+03    -  3.17e-01 4.62e-01h  1
  68 -5.8175066e+00 2.49e+01 8.01e+03  -6.0 6.10e+03    -  2.16e-01 1.20e-01h  1
  69 -5.8187532e+00 2.33e+01 9.67e+04  -6.0 2.50e+03    -  1.96e-02 7.56e-02h  1
iter    objective    inf_pr   inf_du lg(mu)  ||d||  lg(rg) alpha_du alpha_pr  ls
  70 -5.8197727e+00 2.27e+01 7.26e+07  -6.0 3.44e+03    -  2.87e-04 6.78e-02h  1
  71 -5.8211371e+00 2.03e+01 6.23e+07  -6.0 2.81e+03    -  1.84e-02 1.42e-01h  1
  72 -5.8232057e+00 2.11e+01 4.47e+07  -6.0 2.82e+03    -  1.05e-01 2.83e-01h  1
  73 -5.8237082e+00 2.05e+01 4.23e+07  -6.0 3.09e+03    -  3.67e-01 5.35e-02h  1
  74 -5.8258571e+00 6.41e+01 3.35e+07  -6.0 7.42e+03    -  3.55e-01 2.07e-01h  1
  75 -5.8265731e+00 5.98e+01 3.09e+07  -6.0 2.44e+03    -  3.95e-03 7.78e-02h  1
  76 -5.8268835e+00 5.75e+01 2.97e+07  -6.0 1.04e+03    -  1.85e-01 3.89e-02h  1
  77 -5.8269423e+00 5.68e+01 2.93e+07  -6.0 3.38e+01  -2.4 5.82e-04 1.28e-02h  1
  78 -5.8246098e+00 1.03e-01 4.61e+03  -6.0 3.44e+00  -2.9 5.68e-02 1.00e+00h  1
  79 -5.8245149e+00 5.63e-02 2.66e+03  -6.0 2.08e-01  -3.3 1.00e+00 4.52e-01h  1
iter    objective    inf_pr   inf_du lg(mu)  ||d||  lg(rg) alpha_du alpha_pr  ls
  80 -5.8243587e+00 1.89e-02 8.92e+02  -6.0 9.68e-01  -3.8 9.59e-01 6.65e-01h  1
  81 -5.8246066e+00 3.08e-04 3.90e-01  -6.0 1.79e+00  -4.3 1.00e+00 1.00e+00f  1
  82 -5.8252528e+00 1.10e-03 1.32e+00  -6.0 5.31e+00  -4.8 1.00e+00 6.55e-01h  1
  83 -5.8277746e+00 1.66e-02 1.98e+01  -6.0 1.49e+01  -5.2 1.00e+00 1.00e+00f  1
  84 -5.8329785e+00 5.92e-02 6.59e+01  -6.0 3.70e+01  -5.7 2.90e-01 8.79e-01h  1
  85 -5.8336429e+00 5.17e-01 6.56e+01  -6.0 2.13e+04    -  4.85e-02 5.38e-03h  1
  86 -5.8357650e+00 5.07e-01 6.48e+01  -6.0 1.26e+03    -  1.67e-02 2.03e-02h  1
  87 -5.8430440e+00 5.90e-01 9.60e+01  -6.0 9.52e+02    -  2.88e-01 9.32e-02f  1
  88 -5.8449932e+00 5.07e-01 7.57e+01  -6.0 8.72e+02    -  1.00e+00 1.44e-01h  1
  89 -5.8468127e+00 4.57e-01 4.78e+01  -6.0 5.60e+02    -  1.00e+00 1.22e-01h  1
iter    objective    inf_pr   inf_du lg(mu)  ||d||  lg(rg) alpha_du alpha_pr  ls
  90 -5.8490900e+00 7.39e-01 5.73e+01  -6.0 6.97e+02    -  1.00e+00 2.07e-01h  1
  91 -5.8563134e+00 5.81e+00 4.35e+01  -6.0 9.66e+02    -  4.01e-01 5.74e-01h  1
  92 -5.8595168e+00 7.10e+00 3.43e+01  -6.0 1.92e+03    -  2.44e-01 1.94e-01h  1
  93 -5.8600570e+00 6.99e+00 1.47e+04  -6.0 2.49e+03    -  4.65e-03 4.21e-02h  1
  94 -5.8617299e+00 8.05e+00 1.24e+04  -6.0 2.64e+03    -  1.64e-01 1.28e-01h  1
  95 -5.8705250e+00 7.42e+01 9.58e+03  -6.0 3.10e+03    -  2.53e-01 6.61e-01h  1
  96 -5.8728036e+00 6.16e+01 1.25e+05  -6.0 1.75e+03    -  8.00e-03 1.91e-01h  1
  97 -5.8875283e+00 3.58e+00 2.00e+05  -6.0 2.20e+02  -6.2 3.42e-02 9.43e-01h  1
  98 -5.8934856e+00 2.11e+00 1.15e+05  -6.0 2.41e+02    -  6.67e-01 4.30e-01h  1
  99 -5.8984431e+00 1.80e+00 1.16e+05  -6.0 4.21e+02    -  9.29e-01 1.67e-01h  1
iter    objective    inf_pr   inf_du lg(mu)  ||d||  lg(rg) alpha_du alpha_pr  ls
 100 -5.9122505e+00 9.39e-01 1.92e+04  -6.0 2.34e+02    -  6.60e-01 7.24e-01h  1
 101 -5.9283274e+00 1.03e+00 7.19e+05  -6.0 2.70e+02    -  1.26e-01 7.32e-01h  1
 102 -5.9411750e+00 5.66e-01 7.25e+03  -6.0 1.33e+02  -6.7 2.27e-01 1.00e+00h  1
 103 -5.9478311e+00 9.76e-01 1.01e+02  -6.0 2.19e+02    -  8.02e-01 9.83e-01h  1
 104 -5.9418483e+00 7.68e-02 2.14e+01  -6.0 5.25e+01    -  9.46e-01 1.00e+00h  1
 105 -5.9440712e+00 4.23e-01 2.48e+00  -6.0 1.15e+02    -  1.00e+00 1.00e+00h  1
 106 -5.9425668e+00 1.21e-02 4.23e+01  -6.0 2.00e+01    -  7.72e-01 1.00e+00h  1
 107 -5.9425363e+00 8.12e-03 9.96e-02  -6.0 1.61e+01    -  1.00e+00 1.00e+00h  1
 108 -5.9425105e+00 2.97e-05 2.07e-04  -6.0 9.64e-01    -  1.00e+00 1.00e+00h  1
 109 -5.9425105e+00 2.68e-10 1.03e-10  -6.0 5.31e-04    -  1.00e+00 1.00e+00h  1
iter    objective    inf_pr   inf_du lg(mu)  ||d||  lg(rg) alpha_du alpha_pr  ls
 110 -5.9426213e+00 3.04e+00 4.31e+00  -7.5 5.85e+02    -  7.64e-01 7.61e-01h  1
 111 -5.9426169e+00 7.44e-01 1.12e+01  -7.5 1.59e+02    -  1.00e+00 8.54e-01h  1
 112 -5.9426133e+00 8.08e-03 1.28e-02  -7.5 2.19e+01    -  1.00e+00 1.00e+00h  1
 113 -5.9426133e+00 6.52e-07 2.21e-07  -7.5 2.11e-01    -  1.00e+00 1.00e+00h  1
 114 -5.9426133e+00 1.87e-10 5.76e-12  -7.5 1.10e-05    -  1.00e+00 1.00e+00h  1
 115 -5.9426148e+00 4.24e-03 8.61e-01  -9.0 1.96e+01    -  9.28e-01 8.34e-01h  1
 116 -5.9426150e+00 1.70e-04 2.37e-04  -9.0 3.28e+00    -  1.00e+00 1.00e+00h  1
 117 -5.9426150e+00 2.85e-10 3.86e-09  -9.0 2.74e-03    -  1.00e+00 1.00e+00h  1

Number of Iterations....: 117

                                   (scaled)                 (unscaled)
Objective...............:  -4.6426680035474215e+00   -5.9426150445406991e+00
Dual infeasibility......:   3.8636787161779348e-09    4.9455087567077563e-09
Constraint violation....:   2.8484280526711730e-10    2.8484280526711730e-10
Complementarity.........:   1.3249020628373370e-09    1.6958746404317912e-09
Overall NLP error.......:   3.8636787161779348e-09    4.9455087567077563e-09


Number of objective function evaluations             = 201
Number of objective gradient evaluations             = 118
Number of equality constraint evaluations            = 201
Number of inequality constraint evaluations          = 201
Number of equality constraint Jacobian evaluations   = 120
Number of inequality constraint Jacobian evaluations = 120
Number of Lagrangian Hessian evaluations             = 117
Total CPU secs in IPOPT (w/o function evaluations)   =    236.140
Total CPU secs in NLP function evaluations           =      5.101

EXIT: Optimal Solution Found.
